sat
(:max-memory         18.06
 :memory             17.96
 :nlsat-conflicts    2
 :nlsat-decisions    2
 :nlsat-propagations 10
 :nlsat-stages       6
 :num-allocs         28122
 :rlimit-count       1810
 :time               0.00
 :total-time         0.01)
